NAME : 10_3_3_1_(40).dat
COMMENT : Henke, Speranza, Wäscher, 2015
TYPE : MCVRP
DIMENSION : 11
EDGE_WEIGHT_TYPE : DISTANCE_MATRIX
CAPACITY : 1000
VEHICLES : 2
PRODUCT TYPES : 3
COMPARTMENTS : 3
NODE_COORD_SECTION
1 50 50
2 74.29 74.38
3 18.96 16.11
4 31.62 7.6
5 41.43 52.06
6 33.88 60.92
7 63.89 78.69
8 86.53 66.1
9 91.71 75.72
10 77.64 92.1
11 45.83 88.34
DEMAND_SECTION
1 0 0 0
2 147 0 0
3 0 0 272
4 155 0 0
5 24 0 0
6 70 0 0
7 0 83 0
8 151 0 0
9 74 0 0
10 58 0 0
11 0 325 0
DEPOT_SECTION
1
EOF